R03546012許芸瑄Ass09/TSPUtility35/TSPBank/Circular15.tsp
NAME : Circular15
COMMENT : 15 cities evently distributed on the circomference of the origin centered circle with radius 10.
TYPE : TSP
DIMENSION : 15
EDGE_WEIGHT_TYPE : EUC_2D
NODE_COORD_SECTION
1 10.0000 0.0000
2 9.1355 4.0674
3 6.6913 7.4314
4 3.0902 9.5106
5 -1.0453 9.9452
6 -5.0000 8.6603
7 -8.0902 5.8779
8 -9.7815 2.0791
9 -9.7815 -2.0791
10 -8.0902 -5.8779
11 -5.0000 -8.6603
12 -1.0453 -9.9452
13 3.0902 -9.5106
14 6.6913 -7.4314
15 9.1355 -4.0674
EOF
